 $rem
 JOBTYPE OPT
 EXCHANGE B3LYP
! CORRELATION PBE
! UNRESTRICTED TRUE
 SCF_ALGORITHM rca_diis
 SCF_MAX_CYCLES 150
! BASIS LANL2DZ
! ECP LANL2DZ
 BASIS 6-31G*
 WAVEFUNCTION_ANALYSIS FALSE
 GEOM_OPT_MAX_CYCLES 300

scf_convergence 6

 SYM_IGNORE TRUE
 SYMMETRY   FALSE

molden_format true
 $end


$molecule
0 1
  C 0.665081 0.000000 0.000000
  C -0.664950 0.000000 0.000000
  H -1.238123 0.921902 -0.050699
  H 1.238057 -0.921995 0.050448
  H 1.238057 0.921995 -0.050448
  H -1.238123 -0.921902 0.050699
$end
