 $rem
 JOBTYPE OPT
 EXCHANGE B3LYP
! CORRELATION PBE
! UNRESTRICTED TRUE
 SCF_ALGORITHM rca_diis
 SCF_MAX_CYCLES 150
! BASIS LANL2DZ
! ECP LANL2DZ
 BASIS 6-31G*
 WAVEFUNCTION_ANALYSIS FALSE
 GEOM_OPT_MAX_CYCLES 300

scf_convergence 6

 SYM_IGNORE TRUE
 SYMMETRY   FALSE

molden_format true
 $end


$molecule
0 1
  N 1.430440 -0.816527 0.170521
  B 1.904770 0.719519 -0.226011
  B -2.358895 -0.353067 -0.267409
  N -1.423592 0.557365 0.223762
  H 0.430519 -0.818230 0.390074
  H 1.942092 -1.164230 0.979021
  H 1.586682 -1.463985 -0.599886
  H 1.680769 1.381575 0.763138
  H 3.076483 0.645181 -0.507852
  H 1.210198 1.023634 -1.176415
  H -2.250861 -0.741394 -1.393129
  H -3.225933 -0.746921 0.455120
  H -1.488240 0.964117 1.146841
  H -0.696005 0.985596 -0.340158
$end
