 $rem
 JOBTYPE FORCE
 EXCHANGE B3LYP
! CORRELATION PBE 
! UNRESTRICTED TRUE
 SCF_ALGORITHM rca_diis
 SCF_MAX_CYCLES 150 
 BASIS 6-31G*
! BASIS LANL2DZ
! ECP LANL2DZ
 WAVEFUNCTION_ANALYSIS FALSE
 GEOM_OPT_MAX_CYCLES 300 

scf_convergence 6

 SYM_IGNORE TRUE
 SYMMETRY   FALSE

molden_format true
 $end


$molecule
0 1
