 $rem
 JOBTYPE OPT
 EXCHANGE B3LYP
! CORRELATION PBE
! UNRESTRICTED TRUE
 SCF_ALGORITHM rca_diis
 SCF_MAX_CYCLES 150
! BASIS LANL2DZ
! ECP LANL2DZ
 BASIS 6-31G*
 WAVEFUNCTION_ANALYSIS FALSE
 GEOM_OPT_MAX_CYCLES 300

scf_convergence 6

 SYM_IGNORE TRUE
 SYMMETRY   FALSE

molden_format true
 $end


$molecule
0 1
  N 0.741012 -1.697992 1.692989
  B 0.741355 1.182848 -0.894736
  B -1.011687 0.496845 -1.254647
  N -0.291131 0.605307 0.115444
  H 0.088145 -2.269716 2.223394
  H 1.469390 -1.404629 2.340150
  H 1.186350 -2.315013 1.017372
  H 0.941103 2.357813 -0.791270
  H 1.656528 0.447734 -1.127498
  H -0.039734 1.087932 -1.983708
  H -1.937606 1.242889 -1.389964
  H -1.072610 -0.611442 -1.697488
  H -0.014135 -0.249881 0.618704
  H -0.687935 1.284769 0.752197
$end
