 $rem
 JOBTYPE OPT
 EXCHANGE B3LYP
! CORRELATION PBE
! UNRESTRICTED TRUE
 SCF_ALGORITHM rca_diis
 SCF_MAX_CYCLES 150
! BASIS LANL2DZ
! ECP LANL2DZ
 BASIS 6-31G*
 WAVEFUNCTION_ANALYSIS FALSE
 GEOM_OPT_MAX_CYCLES 300

scf_convergence 6

 SYM_IGNORE TRUE
 SYMMETRY   FALSE

molden_format true
 $end


$molecule
0 1
  H 0.411683 0.933336 -0.393972
  C 0.233128 1.105883 0.661774
  C 0.641754 0.237232 1.586782
  H -0.285600 2.008779 0.958465
  H 0.465592 0.414477 2.648399
  O 1.298154 -0.918161 1.284573
  H 1.503522 -1.392872 2.109542
  O 1.194469 -2.733262 3.402573
  C 0.373607 -3.446696 2.863743
  H -0.008156 -4.359206 3.357866
  H -0.026027 -3.214728 1.860356
$end
