
 $rem
 JOBTYPE OPT
 EXCHANGE B3LYP
! CORRELATION PBE
! UNRESTRICTED TRUE
 SCF_ALGORITHM rca_diis
 SCF_MAX_CYCLES 150
! BASIS LANL2DZ
! ECP LANL2DZ
 BASIS 6-31G*
 WAVEFUNCTION_ANALYSIS FALSE
 GEOM_OPT_MAX_CYCLES 300

scf_convergence 6

 SYM_IGNORE TRUE
 SYMMETRY   FALSE

molden_format true
 $end


$molecule
0 1
  H -0.110900 -0.043169 0.268626
  C -0.428820 -0.344915 1.269635
  C 0.814568 -0.790167 2.064214
  H -0.926909 0.499130 1.750628
  H 0.968847 -0.152021 2.945149
  O 1.929568 -0.737698 1.173839
  H 2.731941 -0.923461 1.679944
  O 0.530575 -2.547664 3.715411
  C 0.643256 -2.223220 2.555394
  H -1.162827 -1.150010 1.161421
  H 0.644606 -2.973104 1.730409
$end
