 $rem
 JOBTYPE OPT
 EXCHANGE B3LYP
! CORRELATION PBE
! UNRESTRICTED TRUE
 SCF_ALGORITHM rca_diis
 SCF_MAX_CYCLES 150
! BASIS LANL2DZ
! ECP LANL2DZ
 BASIS 6-31G*
 WAVEFUNCTION_ANALYSIS FALSE
 GEOM_OPT_MAX_CYCLES 300

scf_convergence 6

 SYM_IGNORE TRUE
 SYMMETRY   FALSE

molden_format true
 $end


$molecule
0 1
  C 2.643785 -1.121028 -1.073991
  C 1.440890 -0.257653 -0.731562
  N 1.113549 -0.198238 0.587618
  C -0.002980 0.568839 1.173333
  C -1.390825 -0.048391 0.863046
  N -1.768439 -0.012358 -0.441195
  C -3.015698 -0.602464 -0.893016
  O 0.822529 0.344445 -1.613501
  C 0.081155 2.065992 0.847556
  O -2.082502 -0.492329 1.775255
  H 2.323771 -1.914876 -1.754602
  H 3.131647 -1.568635 -0.204417
  H 3.369802 -0.505402 -1.611088
  H 1.593996 -0.829628 1.210337
  H 0.094656 0.439609 2.253020
  H -1.059273 0.248575 -1.122879
  H -2.849726 -1.546821 -1.426538
  H -3.545070 0.084690 -1.560948
  H -3.631817 -0.800937 -0.015503
  H -0.734906 2.593966 1.349942
  H 0.013387 2.248453 -0.224778
  H 1.029499 2.473951 1.210080
$end
