# B3LYP/6-31G** nosymm Force test

Title Card Required

0 1
