 $rem
 JOBTYPE OPT
 EXCHANGE B3LYP
! CORRELATION PBE
! UNRESTRICTED TRUE
 SCF_ALGORITHM rca_diis
 SCF_MAX_CYCLES 150
! BASIS LANL2DZ
! ECP LANL2DZ
 BASIS 6-31G*
 WAVEFUNCTION_ANALYSIS FALSE
 GEOM_OPT_MAX_CYCLES 300

scf_convergence 6

 SYM_IGNORE TRUE
 SYMMETRY   FALSE

molden_format true
 $end


$molecule
0 1
  C 3.359557 -1.148086 -0.029869
  C 2.321347 -0.067054 0.231378
  N 1.062005 -0.343933 -0.208422
  C -0.052152 0.547606 0.043194
  C -1.332226 -0.299725 -0.053189
  N -2.449401 0.285696 0.455125
  C -3.761531 -0.337056 0.404080
  O 2.603164 0.985305 0.798767
  C -0.083799 1.728333 -0.947407
  O -1.328386 -1.412390 -0.575482
  H 4.185464 -0.714235 -0.601852
  H 2.965743 -2.013007 -0.572448
  H 3.768437 -1.483776 0.928488
  H 0.808442 -1.245049 -0.596941
  H 0.053212 0.950358 1.058918
  H -2.361472 1.195176 0.885809
  H -4.466233 0.271492 -0.174624
  H -4.165763 -0.486532 1.411746
  H -3.642669 -1.306292 -0.081145
  H -0.908125 2.416030 -0.725545
  H -0.201584 1.364171 -1.973295
  H 0.857318 2.277919 -0.867980
$end
