 $rem
 JOBTYPE OPT
 EXCHANGE B3LYP
! CORRELATION PBE
! UNRESTRICTED TRUE
 SCF_ALGORITHM rca_diis
 SCF_MAX_CYCLES 150
! BASIS LANL2DZ
! ECP LANL2DZ
 BASIS 6-31G*
 WAVEFUNCTION_ANALYSIS FALSE
 GEOM_OPT_MAX_CYCLES 300

scf_convergence 6

 SYM_IGNORE TRUE
 SYMMETRY   FALSE

molden_format true
 $end


$molecule
0 1
  C 3.339574 -1.122953 -0.244843
  C 2.320850 -0.057828 0.114057
  N 1.012596 -0.384479 -0.111002
  C -0.094840 0.501913 0.237267
  C -1.377988 -0.331746 0.086642
  N -2.550519 0.327613 0.292916
  C -3.857122 -0.339258 0.209891
  O 2.664357 1.051035 0.591618
  C -0.101894 1.787238 -0.616858
  O -1.327145 -1.555500 -0.194944
  H 4.061394 -0.703595 -0.952658
  H 2.891845 -2.018663 -0.682528
  H 3.894917 -1.405986 0.655287
  H 0.731232 -1.317114 -0.389857
  H 0.005879 0.788110 1.295608
  H -2.526837 1.318006 0.504742
  H -4.475210 0.103499 -0.578978
  H -4.393378 -0.271323 1.162397
  H -3.677052 -1.389028 -0.024646
  H -0.894064 2.479646 -0.307138
  H -0.243761 1.544711 -1.674427
  H 0.860333 2.292936 -0.488692
$end
