 $rem
 JOBTYPE OPT
 EXCHANGE B3LYP
! CORRELATION PBE
! UNRESTRICTED TRUE
 SCF_ALGORITHM rca_diis
 SCF_MAX_CYCLES 150
! BASIS LANL2DZ
! ECP LANL2DZ
 BASIS 6-31G*
 WAVEFUNCTION_ANALYSIS FALSE
 GEOM_OPT_MAX_CYCLES 300

scf_convergence 6

 SYM_IGNORE TRUE
 SYMMETRY   FALSE

molden_format true
 $end


$molecule
0 1
  C 0.664985 0.008774 0.002231
  C -0.665029 -0.009222 -0.002232
  H -1.233934 -0.057311 -0.926987
  H 1.242716 -0.040253 -0.916864
  H 1.233719 0.069972 0.926154
  H -1.242436 0.031922 0.917487
$end
